p tdp 16 41
1 4
1 7
1 14
1 15
2 4
2 6
2 8
2 13
2 14
2 15
2 16
3 4
3 7
3 8
3 9
3 16
4 5
4 6
4 15
5 12
5 13
6 7
6 12
6 13
6 14
6 15
7 9
7 11
7 15
8 9
8 16
9 10
9 11
9 13
10 11
10 14
11 15
11 16
12 13
12 16
13 14
